; benchmark generated from python API
(set-info :status unknown)
(declare-fun x_epoch () (_ BitVec 32))
(declare-fun x_plus_epoch () (_ BitVec 32))
(declare-fun x_plus_month () (_ BitVec 32))
(declare-fun x_plus_year () (_ BitVec 32))
(declare-fun x_plus_day () (_ BitVec 32))
(declare-fun x_plus_1_epoch () (_ BitVec 32))
(assert
 (bvsle (_ bv4294930771 32) x_epoch))
(assert
 (bvsge (_ bv36523 32) x_epoch))
(assert
 (bvsge x_epoch (_ bv7214 32)))
(assert
 (bvsle x_epoch (_ bv7304 32)))
(assert
 (bvsle (_ bv4294930771 32) x_plus_epoch))
(assert
 (bvsge (_ bv36523 32) x_plus_epoch))
(assert
 (let (($x2508 (= x_plus_month (_ bv11 32))))
 (let (($x8138 (= x_plus_month (_ bv9 32))))
 (let (($x3393 (= x_plus_month (_ bv6 32))))
 (let (($x2214 (= x_plus_month (_ bv4 32))))
 (let ((?x7553 (ite (or $x2214 $x3393 $x8138 $x2508) (_ bv30 32) (_ bv31 32))))
 (let (($x1408 (and (= (bvsmod x_plus_year (_ bv4 32)) (_ bv0 32)) (and (distinct (bvsmod x_plus_year (_ bv100 32)) (_ bv0 32)) true))))
 (let (($x1516 (or $x1408 (= (bvsmod x_plus_year (_ bv400 32)) (_ bv0 32)))))
 (let (($x4486 (= x_plus_month (_ bv2 32))))
 (let (($x1138 (bvsle (_ bv1 32) x_plus_day)))
 (let (($x2456 (bvsle (_ bv1 32) x_plus_month)))
 (let (($x3273 (bvsle (_ bv1900 32) x_plus_year)))
 (and $x3273 (bvsge (_ bv2100 32) x_plus_year) $x2456 (bvsge (_ bv12 32) x_plus_month) $x1138 (bvsle x_plus_day (ite $x4486 (ite $x1516 (_ bv29 32) (_ bv28 32)) ?x7553)))))))))))))))
(assert
 (let (($x1408 (and (= (bvsmod x_plus_year (_ bv4 32)) (_ bv0 32)) (and (distinct (bvsmod x_plus_year (_ bv100 32)) (_ bv0 32)) true))))
 (let (($x1516 (or $x1408 (= (bvsmod x_plus_year (_ bv400 32)) (_ bv0 32)))))
 (let ((?x3062 (ite (= (_ bv2 32) x_plus_month) (ite $x1516 (_ bv31 32) (_ bv31 32)) (ite (= (_ bv1 32) x_plus_month) (ite $x1516 (_ bv0 32) (_ bv0 32)) (_ bv0 32)))))
 (let ((?x5284 (ite (= (_ bv4 32) x_plus_month) (ite $x1516 (_ bv91 32) (_ bv90 32)) (ite (= (_ bv3 32) x_plus_month) (ite $x1516 (_ bv60 32) (_ bv59 32)) ?x3062))))
 (let ((?x1618 (ite (= (_ bv6 32) x_plus_month) (ite $x1516 (_ bv152 32) (_ bv151 32)) (ite (= (_ bv5 32) x_plus_month) (ite $x1516 (_ bv121 32) (_ bv120 32)) ?x5284))))
 (let ((?x5063 (ite (= (_ bv8 32) x_plus_month) (ite $x1516 (_ bv213 32) (_ bv212 32)) (ite (= (_ bv7 32) x_plus_month) (ite $x1516 (_ bv182 32) (_ bv181 32)) ?x1618))))
 (let ((?x877 (ite (= (_ bv10 32) x_plus_month) (ite $x1516 (_ bv274 32) (_ bv273 32)) (ite (= (_ bv9 32) x_plus_month) (ite $x1516 (_ bv244 32) (_ bv243 32)) ?x5063))))
 (let ((?x5437 (ite (= (_ bv12 32) x_plus_month) (ite $x1516 (_ bv335 32) (_ bv334 32)) (ite (= (_ bv11 32) x_plus_month) (ite $x1516 (_ bv305 32) (_ bv304 32)) ?x877))))
 (let ((?x3923 (bvadd (bvmul (_ bv365 32) (bvsub x_plus_year (_ bv1 32))) (bvsdiv (bvsub x_plus_year (_ bv1 32)) (_ bv4 32)))))
 (let ((?x2076 (bvadd (bvsub ?x3923 (bvsdiv (bvsub x_plus_year (_ bv1 32)) (_ bv100 32))) (bvsdiv (bvsub x_plus_year (_ bv1 32)) (_ bv400 32)))))
 (= x_plus_epoch (bvsub (bvadd (bvadd ?x2076 ?x5437) (bvsub x_plus_day (_ bv1 32))) (_ bv730179 32))))))))))))))
(assert
 (let ((?x1201 (bvadd x_epoch (_ bv730179 32))))
 (let ((?x33573 (bvsmod ?x1201 (_ bv146097 32))))
 (let ((?x2516 (bvsdiv ?x33573 (_ bv36524 32))))
 (let ((?x15886 (ite (bvsle (_ bv4 32) ?x2516) (_ bv3 32) ?x2516)))
 (let ((?x8168 (bvsub ?x33573 (bvmul ?x15886 (_ bv36524 32)))))
 (let ((?x1140 (bvsmod ?x8168 (_ bv1461 32))))
 (let ((?x1161 (bvsdiv ?x1140 (_ bv365 32))))
 (let ((?x11749 (ite (bvsle (_ bv4 32) ?x1161) (_ bv3 32) ?x1161)))
 (let ((?x3564 (bvadd (bvadd (bvmul (bvsdiv ?x1201 (_ bv146097 32)) (_ bv400 32)) (bvmul ?x15886 (_ bv100 32))) (bvmul (bvsdiv ?x8168 (_ bv1461 32)) (_ bv4 32)))))
 (let ((?x26236 (bvadd (bvadd ?x3564 ?x11749) (_ bv1 32))))
 (let (($x11908 (or (and (= (bvsmod ?x26236 (_ bv4 32)) (_ bv0 32)) (and (distinct (bvsmod ?x26236 (_ bv100 32)) (_ bv0 32)) true)) (= (bvsmod ?x26236 (_ bv400 32)) (_ bv0 32)))))
 (let ((?x2337 (bvsub ?x1140 (bvmul ?x11749 (_ bv365 32)))))
 (let ((?x3734 (ite $x11908 (_ bv31 32) (_ bv31 32))))
 (let (($x5366 (bvsge ?x2337 ?x3734)))
 (let ((?x5792 (ite $x5366 (bvadd (bvsub ?x2337 ?x3734) (_ bv1 32)) (bvadd (bvsub ?x2337 (ite $x11908 (_ bv0 32) (_ bv0 32))) (_ bv1 32)))))
 (let ((?x47417 (ite $x11908 (_ bv60 32) (_ bv59 32))))
 (let (($x805 (bvsge ?x2337 ?x47417)))
 (let ((?x2296 (ite $x11908 (_ bv91 32) (_ bv90 32))))
 (let (($x3364 (bvsge ?x2337 ?x2296)))
 (let ((?x20760 (ite $x3364 (bvadd (bvsub ?x2337 ?x2296) (_ bv1 32)) (ite $x805 (bvadd (bvsub ?x2337 ?x47417) (_ bv1 32)) ?x5792))))
 (let ((?x37289 (ite $x11908 (_ bv121 32) (_ bv120 32))))
 (let (($x1945 (bvsge ?x2337 ?x37289)))
 (let ((?x2125 (ite $x11908 (_ bv152 32) (_ bv151 32))))
 (let (($x5091 (bvsge ?x2337 ?x2125)))
 (let ((?x5445 (ite $x5091 (bvadd (bvsub ?x2337 ?x2125) (_ bv1 32)) (ite $x1945 (bvadd (bvsub ?x2337 ?x37289) (_ bv1 32)) ?x20760))))
 (let ((?x1626 (ite $x11908 (_ bv182 32) (_ bv181 32))))
 (let (($x583 (bvsge ?x2337 ?x1626)))
 (let ((?x3068 (ite $x11908 (_ bv213 32) (_ bv212 32))))
 (let (($x2937 (bvsge ?x2337 ?x3068)))
 (let ((?x701 (ite $x2937 (bvadd (bvsub ?x2337 ?x3068) (_ bv1 32)) (ite $x583 (bvadd (bvsub ?x2337 ?x1626) (_ bv1 32)) ?x5445))))
 (let ((?x1549 (ite $x11908 (_ bv244 32) (_ bv243 32))))
 (let (($x2961 (bvsge ?x2337 ?x1549)))
 (let ((?x8141 (ite $x11908 (_ bv274 32) (_ bv273 32))))
 (let (($x2577 (bvsge ?x2337 ?x8141)))
 (let ((?x596 (ite $x2577 (bvadd (bvsub ?x2337 ?x8141) (_ bv1 32)) (ite $x2961 (bvadd (bvsub ?x2337 ?x1549) (_ bv1 32)) ?x701))))
 (let ((?x903 (ite $x11908 (_ bv305 32) (_ bv304 32))))
 (let (($x1761 (bvsge ?x2337 ?x903)))
 (let ((?x6357 (ite $x11908 (_ bv335 32) (_ bv334 32))))
 (let (($x783 (bvsge ?x2337 ?x6357)))
 (let ((?x42519 (ite $x783 (bvadd (bvsub ?x2337 ?x6357) (_ bv1 32)) (ite $x1761 (bvadd (bvsub ?x2337 ?x903) (_ bv1 32)) ?x596))))
 (let ((?x5022 (bvadd (bvmul (_ bv1 32) (_ bv12 32)) (_ bv0 32))))
 (let ((?x61399 (ite $x5091 (_ bv6 32) (ite $x1945 (_ bv5 32) (ite $x3364 (_ bv4 32) (ite $x805 (_ bv3 32) (ite $x5366 (_ bv2 32) (_ bv1 32))))))))
 (let ((?x6068 (ite $x1761 (_ bv11 32) (ite $x2577 (_ bv10 32) (ite $x2961 (_ bv9 32) (ite $x2937 (_ bv8 32) (ite $x583 (_ bv7 32) ?x61399)))))))
 (let ((?x11059 (ite $x783 (_ bv12 32) ?x6068)))
 (let ((?x3308 (bvadd ?x11059 ?x5022)))
 (let ((?x605 (bvsub (ite (bvuge ?x3308 (_ bv2147483648 32)) (bvsub ?x3308 (_ bv0 32)) ?x3308) (_ bv1 32))))
 (let ((?x1721 (bvsmod ?x605 (_ bv12 32))))
 (let ((?x6644 (bvadd ?x1721 (_ bv1 32))))
 (let ((?x1033 (ite (or (= ?x6644 (_ bv4 32)) (= ?x6644 (_ bv6 32)) (= ?x6644 (_ bv9 32)) (= ?x6644 (_ bv11 32))) (_ bv30 32) (_ bv31 32))))
 (let ((?x15050 (bvsdiv ?x605 (_ bv12 32))))
 (let ((?x2386 (ite (and (bvuge ?x605 (_ bv2147483648 32)) (and (distinct (_ bv0 32) ?x1721) true)) (bvsub ?x15050 (_ bv1 32)) ?x15050)))
 (let ((?x2373 (bvadd (_ bv0 32) ?x2386)))
 (let ((?x8248 (bvadd ?x26236 ?x2373)))
 (let (($x43990 (or (and (= (bvsmod ?x8248 (_ bv4 32)) (_ bv0 32)) (and (distinct (bvsmod ?x8248 (_ bv100 32)) (_ bv0 32)) true)) (= (bvsmod ?x8248 (_ bv400 32)) (_ bv0 32)))))
 (let ((?x5862 (ite (= ?x6644 (_ bv2 32)) (ite $x43990 (_ bv29 32) (_ bv28 32)) ?x1033)))
 (let (($x58947 (bvsgt (_ bv1 32) ?x42519)))
 (let ((?x1636 (ite $x58947 (_ bv1 32) (ite (bvsgt ?x42519 ?x5862) ?x5862 ?x42519))))
 (let ((?x2584 (ite (bvsgt (_ bv1 32) ?x1636) (_ bv1 32) (ite (bvsgt ?x1636 ?x5862) ?x5862 ?x1636))))
 (let ((?x575 (ite (= (_ bv2 32) ?x6644) (ite $x43990 (_ bv31 32) (_ bv31 32)) (ite (= (_ bv1 32) ?x6644) (ite $x43990 (_ bv0 32) (_ bv0 32)) (_ bv0 32)))))
 (let ((?x2156 (ite (= (_ bv4 32) ?x6644) (ite $x43990 (_ bv91 32) (_ bv90 32)) (ite (= (_ bv3 32) ?x6644) (ite $x43990 (_ bv60 32) (_ bv59 32)) ?x575))))
 (let ((?x2341 (ite (= (_ bv6 32) ?x6644) (ite $x43990 (_ bv152 32) (_ bv151 32)) (ite (= (_ bv5 32) ?x6644) (ite $x43990 (_ bv121 32) (_ bv120 32)) ?x2156))))
 (let ((?x43057 (ite (= (_ bv8 32) ?x6644) (ite $x43990 (_ bv213 32) (_ bv212 32)) (ite (= (_ bv7 32) ?x6644) (ite $x43990 (_ bv182 32) (_ bv181 32)) ?x2341))))
 (let ((?x19863 (ite (= (_ bv10 32) ?x6644) (ite $x43990 (_ bv274 32) (_ bv273 32)) (ite (= (_ bv9 32) ?x6644) (ite $x43990 (_ bv244 32) (_ bv243 32)) ?x43057))))
 (let ((?x82399 (ite (= (_ bv12 32) ?x6644) (ite $x43990 (_ bv335 32) (_ bv334 32)) (ite (= (_ bv11 32) ?x6644) (ite $x43990 (_ bv305 32) (_ bv304 32)) ?x19863))))
 (let ((?x2826 (bvadd (bvmul (_ bv365 32) (bvsub ?x8248 (_ bv1 32))) (bvsdiv (bvsub ?x8248 (_ bv1 32)) (_ bv4 32)))))
 (let ((?x42234 (bvadd (bvsub ?x2826 (bvsdiv (bvsub ?x8248 (_ bv1 32)) (_ bv100 32))) (bvsdiv (bvsub ?x8248 (_ bv1 32)) (_ bv400 32)))))
 (let ((?x34329 (bvadd (bvadd (bvsub (bvadd (bvadd ?x42234 ?x82399) (bvsub ?x2584 (_ bv1 32))) (_ bv730179 32)) (_ bv0 32)) (_ bv730179 32))))
 (let ((?x58672 (bvsmod ?x34329 (_ bv146097 32))))
 (let ((?x29929 (bvsdiv ?x58672 (_ bv36524 32))))
 (let ((?x46694 (ite (bvsle (_ bv4 32) ?x29929) (_ bv3 32) ?x29929)))
 (let ((?x81475 (bvsub ?x58672 (bvmul ?x46694 (_ bv36524 32)))))
 (let ((?x81313 (bvsmod ?x81475 (_ bv1461 32))))
 (let ((?x81384 (bvsdiv ?x81313 (_ bv365 32))))
 (let ((?x13142 (ite (bvsle (_ bv4 32) ?x81384) (_ bv3 32) ?x81384)))
 (let ((?x7351 (bvadd (bvadd (bvmul (bvsdiv ?x34329 (_ bv146097 32)) (_ bv400 32)) (bvmul ?x46694 (_ bv100 32))) (bvmul (bvsdiv ?x81475 (_ bv1461 32)) (_ bv4 32)))))
 (let ((?x82058 (bvadd (bvadd ?x7351 ?x13142) (_ bv1 32))))
 (let (($x11357 (= (_ bv0 32) (_ bv0 32))))
 (let ((?x5851 (ite $x11357 ?x8248 ?x82058)))
 (= x_plus_year ?x5851))))))))))))))))))))))))))))))))))))))))))))))))))))))))))))))))))))))))))))))))
(assert
 (let ((?x1201 (bvadd x_epoch (_ bv730179 32))))
 (let ((?x33573 (bvsmod ?x1201 (_ bv146097 32))))
 (let ((?x2516 (bvsdiv ?x33573 (_ bv36524 32))))
 (let ((?x15886 (ite (bvsle (_ bv4 32) ?x2516) (_ bv3 32) ?x2516)))
 (let ((?x8168 (bvsub ?x33573 (bvmul ?x15886 (_ bv36524 32)))))
 (let ((?x1140 (bvsmod ?x8168 (_ bv1461 32))))
 (let ((?x1161 (bvsdiv ?x1140 (_ bv365 32))))
 (let ((?x11749 (ite (bvsle (_ bv4 32) ?x1161) (_ bv3 32) ?x1161)))
 (let ((?x3564 (bvadd (bvadd (bvmul (bvsdiv ?x1201 (_ bv146097 32)) (_ bv400 32)) (bvmul ?x15886 (_ bv100 32))) (bvmul (bvsdiv ?x8168 (_ bv1461 32)) (_ bv4 32)))))
 (let ((?x26236 (bvadd (bvadd ?x3564 ?x11749) (_ bv1 32))))
 (let (($x11908 (or (and (= (bvsmod ?x26236 (_ bv4 32)) (_ bv0 32)) (and (distinct (bvsmod ?x26236 (_ bv100 32)) (_ bv0 32)) true)) (= (bvsmod ?x26236 (_ bv400 32)) (_ bv0 32)))))
 (let ((?x2337 (bvsub ?x1140 (bvmul ?x11749 (_ bv365 32)))))
 (let ((?x3734 (ite $x11908 (_ bv31 32) (_ bv31 32))))
 (let (($x5366 (bvsge ?x2337 ?x3734)))
 (let ((?x5792 (ite $x5366 (bvadd (bvsub ?x2337 ?x3734) (_ bv1 32)) (bvadd (bvsub ?x2337 (ite $x11908 (_ bv0 32) (_ bv0 32))) (_ bv1 32)))))
 (let ((?x47417 (ite $x11908 (_ bv60 32) (_ bv59 32))))
 (let (($x805 (bvsge ?x2337 ?x47417)))
 (let ((?x2296 (ite $x11908 (_ bv91 32) (_ bv90 32))))
 (let (($x3364 (bvsge ?x2337 ?x2296)))
 (let ((?x20760 (ite $x3364 (bvadd (bvsub ?x2337 ?x2296) (_ bv1 32)) (ite $x805 (bvadd (bvsub ?x2337 ?x47417) (_ bv1 32)) ?x5792))))
 (let ((?x37289 (ite $x11908 (_ bv121 32) (_ bv120 32))))
 (let (($x1945 (bvsge ?x2337 ?x37289)))
 (let ((?x2125 (ite $x11908 (_ bv152 32) (_ bv151 32))))
 (let (($x5091 (bvsge ?x2337 ?x2125)))
 (let ((?x5445 (ite $x5091 (bvadd (bvsub ?x2337 ?x2125) (_ bv1 32)) (ite $x1945 (bvadd (bvsub ?x2337 ?x37289) (_ bv1 32)) ?x20760))))
 (let ((?x1626 (ite $x11908 (_ bv182 32) (_ bv181 32))))
 (let (($x583 (bvsge ?x2337 ?x1626)))
 (let ((?x3068 (ite $x11908 (_ bv213 32) (_ bv212 32))))
 (let (($x2937 (bvsge ?x2337 ?x3068)))
 (let ((?x701 (ite $x2937 (bvadd (bvsub ?x2337 ?x3068) (_ bv1 32)) (ite $x583 (bvadd (bvsub ?x2337 ?x1626) (_ bv1 32)) ?x5445))))
 (let ((?x1549 (ite $x11908 (_ bv244 32) (_ bv243 32))))
 (let (($x2961 (bvsge ?x2337 ?x1549)))
 (let ((?x8141 (ite $x11908 (_ bv274 32) (_ bv273 32))))
 (let (($x2577 (bvsge ?x2337 ?x8141)))
 (let ((?x596 (ite $x2577 (bvadd (bvsub ?x2337 ?x8141) (_ bv1 32)) (ite $x2961 (bvadd (bvsub ?x2337 ?x1549) (_ bv1 32)) ?x701))))
 (let ((?x903 (ite $x11908 (_ bv305 32) (_ bv304 32))))
 (let (($x1761 (bvsge ?x2337 ?x903)))
 (let ((?x6357 (ite $x11908 (_ bv335 32) (_ bv334 32))))
 (let (($x783 (bvsge ?x2337 ?x6357)))
 (let ((?x42519 (ite $x783 (bvadd (bvsub ?x2337 ?x6357) (_ bv1 32)) (ite $x1761 (bvadd (bvsub ?x2337 ?x903) (_ bv1 32)) ?x596))))
 (let ((?x5022 (bvadd (bvmul (_ bv1 32) (_ bv12 32)) (_ bv0 32))))
 (let ((?x61399 (ite $x5091 (_ bv6 32) (ite $x1945 (_ bv5 32) (ite $x3364 (_ bv4 32) (ite $x805 (_ bv3 32) (ite $x5366 (_ bv2 32) (_ bv1 32))))))))
 (let ((?x6068 (ite $x1761 (_ bv11 32) (ite $x2577 (_ bv10 32) (ite $x2961 (_ bv9 32) (ite $x2937 (_ bv8 32) (ite $x583 (_ bv7 32) ?x61399)))))))
 (let ((?x11059 (ite $x783 (_ bv12 32) ?x6068)))
 (let ((?x3308 (bvadd ?x11059 ?x5022)))
 (let ((?x605 (bvsub (ite (bvuge ?x3308 (_ bv2147483648 32)) (bvsub ?x3308 (_ bv0 32)) ?x3308) (_ bv1 32))))
 (let ((?x1721 (bvsmod ?x605 (_ bv12 32))))
 (let ((?x6644 (bvadd ?x1721 (_ bv1 32))))
 (let ((?x1033 (ite (or (= ?x6644 (_ bv4 32)) (= ?x6644 (_ bv6 32)) (= ?x6644 (_ bv9 32)) (= ?x6644 (_ bv11 32))) (_ bv30 32) (_ bv31 32))))
 (let ((?x15050 (bvsdiv ?x605 (_ bv12 32))))
 (let ((?x2386 (ite (and (bvuge ?x605 (_ bv2147483648 32)) (and (distinct (_ bv0 32) ?x1721) true)) (bvsub ?x15050 (_ bv1 32)) ?x15050)))
 (let ((?x2373 (bvadd (_ bv0 32) ?x2386)))
 (let ((?x8248 (bvadd ?x26236 ?x2373)))
 (let (($x43990 (or (and (= (bvsmod ?x8248 (_ bv4 32)) (_ bv0 32)) (and (distinct (bvsmod ?x8248 (_ bv100 32)) (_ bv0 32)) true)) (= (bvsmod ?x8248 (_ bv400 32)) (_ bv0 32)))))
 (let ((?x5862 (ite (= ?x6644 (_ bv2 32)) (ite $x43990 (_ bv29 32) (_ bv28 32)) ?x1033)))
 (let (($x58947 (bvsgt (_ bv1 32) ?x42519)))
 (let ((?x1636 (ite $x58947 (_ bv1 32) (ite (bvsgt ?x42519 ?x5862) ?x5862 ?x42519))))
 (let ((?x2584 (ite (bvsgt (_ bv1 32) ?x1636) (_ bv1 32) (ite (bvsgt ?x1636 ?x5862) ?x5862 ?x1636))))
 (let ((?x575 (ite (= (_ bv2 32) ?x6644) (ite $x43990 (_ bv31 32) (_ bv31 32)) (ite (= (_ bv1 32) ?x6644) (ite $x43990 (_ bv0 32) (_ bv0 32)) (_ bv0 32)))))
 (let ((?x2156 (ite (= (_ bv4 32) ?x6644) (ite $x43990 (_ bv91 32) (_ bv90 32)) (ite (= (_ bv3 32) ?x6644) (ite $x43990 (_ bv60 32) (_ bv59 32)) ?x575))))
 (let ((?x2341 (ite (= (_ bv6 32) ?x6644) (ite $x43990 (_ bv152 32) (_ bv151 32)) (ite (= (_ bv5 32) ?x6644) (ite $x43990 (_ bv121 32) (_ bv120 32)) ?x2156))))
 (let ((?x43057 (ite (= (_ bv8 32) ?x6644) (ite $x43990 (_ bv213 32) (_ bv212 32)) (ite (= (_ bv7 32) ?x6644) (ite $x43990 (_ bv182 32) (_ bv181 32)) ?x2341))))
 (let ((?x19863 (ite (= (_ bv10 32) ?x6644) (ite $x43990 (_ bv274 32) (_ bv273 32)) (ite (= (_ bv9 32) ?x6644) (ite $x43990 (_ bv244 32) (_ bv243 32)) ?x43057))))
 (let ((?x82399 (ite (= (_ bv12 32) ?x6644) (ite $x43990 (_ bv335 32) (_ bv334 32)) (ite (= (_ bv11 32) ?x6644) (ite $x43990 (_ bv305 32) (_ bv304 32)) ?x19863))))
 (let ((?x2826 (bvadd (bvmul (_ bv365 32) (bvsub ?x8248 (_ bv1 32))) (bvsdiv (bvsub ?x8248 (_ bv1 32)) (_ bv4 32)))))
 (let ((?x42234 (bvadd (bvsub ?x2826 (bvsdiv (bvsub ?x8248 (_ bv1 32)) (_ bv100 32))) (bvsdiv (bvsub ?x8248 (_ bv1 32)) (_ bv400 32)))))
 (let ((?x34329 (bvadd (bvadd (bvsub (bvadd (bvadd ?x42234 ?x82399) (bvsub ?x2584 (_ bv1 32))) (_ bv730179 32)) (_ bv0 32)) (_ bv730179 32))))
 (let ((?x58672 (bvsmod ?x34329 (_ bv146097 32))))
 (let ((?x29929 (bvsdiv ?x58672 (_ bv36524 32))))
 (let ((?x46694 (ite (bvsle (_ bv4 32) ?x29929) (_ bv3 32) ?x29929)))
 (let ((?x81475 (bvsub ?x58672 (bvmul ?x46694 (_ bv36524 32)))))
 (let ((?x81313 (bvsmod ?x81475 (_ bv1461 32))))
 (let ((?x81384 (bvsdiv ?x81313 (_ bv365 32))))
 (let ((?x13142 (ite (bvsle (_ bv4 32) ?x81384) (_ bv3 32) ?x81384)))
 (let ((?x7351 (bvadd (bvadd (bvmul (bvsdiv ?x34329 (_ bv146097 32)) (_ bv400 32)) (bvmul ?x46694 (_ bv100 32))) (bvmul (bvsdiv ?x81475 (_ bv1461 32)) (_ bv4 32)))))
 (let ((?x82058 (bvadd (bvadd ?x7351 ?x13142) (_ bv1 32))))
 (let (($x78669 (or (and (= (bvsmod ?x82058 (_ bv4 32)) (_ bv0 32)) (and (distinct (bvsmod ?x82058 (_ bv100 32)) (_ bv0 32)) true)) (= (bvsmod ?x82058 (_ bv400 32)) (_ bv0 32)))))
 (let ((?x3886 (ite $x78669 (_ bv31 32) (_ bv31 32))))
 (let ((?x46233 (bvsub ?x81313 (bvmul ?x13142 (_ bv365 32)))))
 (let (($x81259 (bvsge ?x46233 ?x3886)))
 (let ((?x48913 (ite $x78669 (_ bv60 32) (_ bv59 32))))
 (let (($x8933 (bvsge ?x46233 ?x48913)))
 (let ((?x26502 (ite $x78669 (_ bv91 32) (_ bv90 32))))
 (let (($x84237 (bvsge ?x46233 ?x26502)))
 (let ((?x73309 (ite $x78669 (_ bv121 32) (_ bv120 32))))
 (let (($x74007 (bvsge ?x46233 ?x73309)))
 (let ((?x47949 (ite $x78669 (_ bv152 32) (_ bv151 32))))
 (let (($x56453 (bvsge ?x46233 ?x47949)))
 (let ((?x81451 (ite $x56453 (_ bv6 32) (ite $x74007 (_ bv5 32) (ite $x84237 (_ bv4 32) (ite $x8933 (_ bv3 32) (ite $x81259 (_ bv2 32) (_ bv1 32))))))))
 (let ((?x76976 (ite $x78669 (_ bv182 32) (_ bv181 32))))
 (let (($x73808 (bvsge ?x46233 ?x76976)))
 (let ((?x88628 (ite $x78669 (_ bv213 32) (_ bv212 32))))
 (let (($x77570 (bvsge ?x46233 ?x88628)))
 (let ((?x21873 (ite $x78669 (_ bv244 32) (_ bv243 32))))
 (let (($x73971 (bvsge ?x46233 ?x21873)))
 (let ((?x81406 (ite $x78669 (_ bv274 32) (_ bv273 32))))
 (let (($x74644 (bvsge ?x46233 ?x81406)))
 (let ((?x81431 (ite $x78669 (_ bv305 32) (_ bv304 32))))
 (let (($x7515 (bvsge ?x46233 ?x81431)))
 (let ((?x37180 (ite $x7515 (_ bv11 32) (ite $x74644 (_ bv10 32) (ite $x73971 (_ bv9 32) (ite $x77570 (_ bv8 32) (ite $x73808 (_ bv7 32) ?x81451)))))))
 (let ((?x73663 (ite $x78669 (_ bv335 32) (_ bv334 32))))
 (let (($x81477 (bvsge ?x46233 ?x73663)))
 (let (($x11357 (= (_ bv0 32) (_ bv0 32))))
 (let ((?x676 (ite $x11357 ?x6644 (ite $x81477 (_ bv12 32) ?x37180))))
 (= x_plus_month ?x676))))))))))))))))))))))))))))))))))))))))))))))))))))))))))))))))))))))))))))))))))))))))))))))))))))))))))
(assert
 (let ((?x1201 (bvadd x_epoch (_ bv730179 32))))
 (let ((?x33573 (bvsmod ?x1201 (_ bv146097 32))))
 (let ((?x2516 (bvsdiv ?x33573 (_ bv36524 32))))
 (let ((?x15886 (ite (bvsle (_ bv4 32) ?x2516) (_ bv3 32) ?x2516)))
 (let ((?x8168 (bvsub ?x33573 (bvmul ?x15886 (_ bv36524 32)))))
 (let ((?x1140 (bvsmod ?x8168 (_ bv1461 32))))
 (let ((?x1161 (bvsdiv ?x1140 (_ bv365 32))))
 (let ((?x11749 (ite (bvsle (_ bv4 32) ?x1161) (_ bv3 32) ?x1161)))
 (let ((?x3564 (bvadd (bvadd (bvmul (bvsdiv ?x1201 (_ bv146097 32)) (_ bv400 32)) (bvmul ?x15886 (_ bv100 32))) (bvmul (bvsdiv ?x8168 (_ bv1461 32)) (_ bv4 32)))))
 (let ((?x26236 (bvadd (bvadd ?x3564 ?x11749) (_ bv1 32))))
 (let (($x11908 (or (and (= (bvsmod ?x26236 (_ bv4 32)) (_ bv0 32)) (and (distinct (bvsmod ?x26236 (_ bv100 32)) (_ bv0 32)) true)) (= (bvsmod ?x26236 (_ bv400 32)) (_ bv0 32)))))
 (let ((?x2337 (bvsub ?x1140 (bvmul ?x11749 (_ bv365 32)))))
 (let ((?x3734 (ite $x11908 (_ bv31 32) (_ bv31 32))))
 (let (($x5366 (bvsge ?x2337 ?x3734)))
 (let ((?x5792 (ite $x5366 (bvadd (bvsub ?x2337 ?x3734) (_ bv1 32)) (bvadd (bvsub ?x2337 (ite $x11908 (_ bv0 32) (_ bv0 32))) (_ bv1 32)))))
 (let ((?x47417 (ite $x11908 (_ bv60 32) (_ bv59 32))))
 (let (($x805 (bvsge ?x2337 ?x47417)))
 (let ((?x2296 (ite $x11908 (_ bv91 32) (_ bv90 32))))
 (let (($x3364 (bvsge ?x2337 ?x2296)))
 (let ((?x20760 (ite $x3364 (bvadd (bvsub ?x2337 ?x2296) (_ bv1 32)) (ite $x805 (bvadd (bvsub ?x2337 ?x47417) (_ bv1 32)) ?x5792))))
 (let ((?x37289 (ite $x11908 (_ bv121 32) (_ bv120 32))))
 (let (($x1945 (bvsge ?x2337 ?x37289)))
 (let ((?x2125 (ite $x11908 (_ bv152 32) (_ bv151 32))))
 (let (($x5091 (bvsge ?x2337 ?x2125)))
 (let ((?x5445 (ite $x5091 (bvadd (bvsub ?x2337 ?x2125) (_ bv1 32)) (ite $x1945 (bvadd (bvsub ?x2337 ?x37289) (_ bv1 32)) ?x20760))))
 (let ((?x1626 (ite $x11908 (_ bv182 32) (_ bv181 32))))
 (let (($x583 (bvsge ?x2337 ?x1626)))
 (let ((?x3068 (ite $x11908 (_ bv213 32) (_ bv212 32))))
 (let (($x2937 (bvsge ?x2337 ?x3068)))
 (let ((?x701 (ite $x2937 (bvadd (bvsub ?x2337 ?x3068) (_ bv1 32)) (ite $x583 (bvadd (bvsub ?x2337 ?x1626) (_ bv1 32)) ?x5445))))
 (let ((?x1549 (ite $x11908 (_ bv244 32) (_ bv243 32))))
 (let (($x2961 (bvsge ?x2337 ?x1549)))
 (let ((?x8141 (ite $x11908 (_ bv274 32) (_ bv273 32))))
 (let (($x2577 (bvsge ?x2337 ?x8141)))
 (let ((?x596 (ite $x2577 (bvadd (bvsub ?x2337 ?x8141) (_ bv1 32)) (ite $x2961 (bvadd (bvsub ?x2337 ?x1549) (_ bv1 32)) ?x701))))
 (let ((?x903 (ite $x11908 (_ bv305 32) (_ bv304 32))))
 (let (($x1761 (bvsge ?x2337 ?x903)))
 (let ((?x6357 (ite $x11908 (_ bv335 32) (_ bv334 32))))
 (let (($x783 (bvsge ?x2337 ?x6357)))
 (let ((?x42519 (ite $x783 (bvadd (bvsub ?x2337 ?x6357) (_ bv1 32)) (ite $x1761 (bvadd (bvsub ?x2337 ?x903) (_ bv1 32)) ?x596))))
 (let ((?x5022 (bvadd (bvmul (_ bv1 32) (_ bv12 32)) (_ bv0 32))))
 (let ((?x61399 (ite $x5091 (_ bv6 32) (ite $x1945 (_ bv5 32) (ite $x3364 (_ bv4 32) (ite $x805 (_ bv3 32) (ite $x5366 (_ bv2 32) (_ bv1 32))))))))
 (let ((?x6068 (ite $x1761 (_ bv11 32) (ite $x2577 (_ bv10 32) (ite $x2961 (_ bv9 32) (ite $x2937 (_ bv8 32) (ite $x583 (_ bv7 32) ?x61399)))))))
 (let ((?x11059 (ite $x783 (_ bv12 32) ?x6068)))
 (let ((?x3308 (bvadd ?x11059 ?x5022)))
 (let ((?x605 (bvsub (ite (bvuge ?x3308 (_ bv2147483648 32)) (bvsub ?x3308 (_ bv0 32)) ?x3308) (_ bv1 32))))
 (let ((?x1721 (bvsmod ?x605 (_ bv12 32))))
 (let ((?x6644 (bvadd ?x1721 (_ bv1 32))))
 (let ((?x1033 (ite (or (= ?x6644 (_ bv4 32)) (= ?x6644 (_ bv6 32)) (= ?x6644 (_ bv9 32)) (= ?x6644 (_ bv11 32))) (_ bv30 32) (_ bv31 32))))
 (let ((?x15050 (bvsdiv ?x605 (_ bv12 32))))
 (let ((?x2386 (ite (and (bvuge ?x605 (_ bv2147483648 32)) (and (distinct (_ bv0 32) ?x1721) true)) (bvsub ?x15050 (_ bv1 32)) ?x15050)))
 (let ((?x2373 (bvadd (_ bv0 32) ?x2386)))
 (let ((?x8248 (bvadd ?x26236 ?x2373)))
 (let (($x43990 (or (and (= (bvsmod ?x8248 (_ bv4 32)) (_ bv0 32)) (and (distinct (bvsmod ?x8248 (_ bv100 32)) (_ bv0 32)) true)) (= (bvsmod ?x8248 (_ bv400 32)) (_ bv0 32)))))
 (let ((?x5862 (ite (= ?x6644 (_ bv2 32)) (ite $x43990 (_ bv29 32) (_ bv28 32)) ?x1033)))
 (let (($x58947 (bvsgt (_ bv1 32) ?x42519)))
 (let ((?x1636 (ite $x58947 (_ bv1 32) (ite (bvsgt ?x42519 ?x5862) ?x5862 ?x42519))))
 (let ((?x2584 (ite (bvsgt (_ bv1 32) ?x1636) (_ bv1 32) (ite (bvsgt ?x1636 ?x5862) ?x5862 ?x1636))))
 (let ((?x575 (ite (= (_ bv2 32) ?x6644) (ite $x43990 (_ bv31 32) (_ bv31 32)) (ite (= (_ bv1 32) ?x6644) (ite $x43990 (_ bv0 32) (_ bv0 32)) (_ bv0 32)))))
 (let ((?x2156 (ite (= (_ bv4 32) ?x6644) (ite $x43990 (_ bv91 32) (_ bv90 32)) (ite (= (_ bv3 32) ?x6644) (ite $x43990 (_ bv60 32) (_ bv59 32)) ?x575))))
 (let ((?x2341 (ite (= (_ bv6 32) ?x6644) (ite $x43990 (_ bv152 32) (_ bv151 32)) (ite (= (_ bv5 32) ?x6644) (ite $x43990 (_ bv121 32) (_ bv120 32)) ?x2156))))
 (let ((?x43057 (ite (= (_ bv8 32) ?x6644) (ite $x43990 (_ bv213 32) (_ bv212 32)) (ite (= (_ bv7 32) ?x6644) (ite $x43990 (_ bv182 32) (_ bv181 32)) ?x2341))))
 (let ((?x19863 (ite (= (_ bv10 32) ?x6644) (ite $x43990 (_ bv274 32) (_ bv273 32)) (ite (= (_ bv9 32) ?x6644) (ite $x43990 (_ bv244 32) (_ bv243 32)) ?x43057))))
 (let ((?x82399 (ite (= (_ bv12 32) ?x6644) (ite $x43990 (_ bv335 32) (_ bv334 32)) (ite (= (_ bv11 32) ?x6644) (ite $x43990 (_ bv305 32) (_ bv304 32)) ?x19863))))
 (let ((?x2826 (bvadd (bvmul (_ bv365 32) (bvsub ?x8248 (_ bv1 32))) (bvsdiv (bvsub ?x8248 (_ bv1 32)) (_ bv4 32)))))
 (let ((?x42234 (bvadd (bvsub ?x2826 (bvsdiv (bvsub ?x8248 (_ bv1 32)) (_ bv100 32))) (bvsdiv (bvsub ?x8248 (_ bv1 32)) (_ bv400 32)))))
 (let ((?x34329 (bvadd (bvadd (bvsub (bvadd (bvadd ?x42234 ?x82399) (bvsub ?x2584 (_ bv1 32))) (_ bv730179 32)) (_ bv0 32)) (_ bv730179 32))))
 (let ((?x58672 (bvsmod ?x34329 (_ bv146097 32))))
 (let ((?x29929 (bvsdiv ?x58672 (_ bv36524 32))))
 (let ((?x46694 (ite (bvsle (_ bv4 32) ?x29929) (_ bv3 32) ?x29929)))
 (let ((?x81475 (bvsub ?x58672 (bvmul ?x46694 (_ bv36524 32)))))
 (let ((?x81313 (bvsmod ?x81475 (_ bv1461 32))))
 (let ((?x81384 (bvsdiv ?x81313 (_ bv365 32))))
 (let ((?x13142 (ite (bvsle (_ bv4 32) ?x81384) (_ bv3 32) ?x81384)))
 (let ((?x7351 (bvadd (bvadd (bvmul (bvsdiv ?x34329 (_ bv146097 32)) (_ bv400 32)) (bvmul ?x46694 (_ bv100 32))) (bvmul (bvsdiv ?x81475 (_ bv1461 32)) (_ bv4 32)))))
 (let ((?x82058 (bvadd (bvadd ?x7351 ?x13142) (_ bv1 32))))
 (let (($x78669 (or (and (= (bvsmod ?x82058 (_ bv4 32)) (_ bv0 32)) (and (distinct (bvsmod ?x82058 (_ bv100 32)) (_ bv0 32)) true)) (= (bvsmod ?x82058 (_ bv400 32)) (_ bv0 32)))))
 (let ((?x46233 (bvsub ?x81313 (bvmul ?x13142 (_ bv365 32)))))
 (let ((?x3886 (ite $x78669 (_ bv31 32) (_ bv31 32))))
 (let (($x81259 (bvsge ?x46233 ?x3886)))
 (let ((?x49103 (ite $x81259 (bvadd (bvsub ?x46233 ?x3886) (_ bv1 32)) (bvadd (bvsub ?x46233 (ite $x78669 (_ bv0 32) (_ bv0 32))) (_ bv1 32)))))
 (let ((?x48913 (ite $x78669 (_ bv60 32) (_ bv59 32))))
 (let (($x8933 (bvsge ?x46233 ?x48913)))
 (let ((?x26502 (ite $x78669 (_ bv91 32) (_ bv90 32))))
 (let (($x84237 (bvsge ?x46233 ?x26502)))
 (let ((?x54710 (ite $x84237 (bvadd (bvsub ?x46233 ?x26502) (_ bv1 32)) (ite $x8933 (bvadd (bvsub ?x46233 ?x48913) (_ bv1 32)) ?x49103))))
 (let ((?x73309 (ite $x78669 (_ bv121 32) (_ bv120 32))))
 (let (($x74007 (bvsge ?x46233 ?x73309)))
 (let ((?x47949 (ite $x78669 (_ bv152 32) (_ bv151 32))))
 (let (($x56453 (bvsge ?x46233 ?x47949)))
 (let ((?x3042 (ite $x56453 (bvadd (bvsub ?x46233 ?x47949) (_ bv1 32)) (ite $x74007 (bvadd (bvsub ?x46233 ?x73309) (_ bv1 32)) ?x54710))))
 (let ((?x76976 (ite $x78669 (_ bv182 32) (_ bv181 32))))
 (let (($x73808 (bvsge ?x46233 ?x76976)))
 (let ((?x88628 (ite $x78669 (_ bv213 32) (_ bv212 32))))
 (let (($x77570 (bvsge ?x46233 ?x88628)))
 (let ((?x1680 (ite $x77570 (bvadd (bvsub ?x46233 ?x88628) (_ bv1 32)) (ite $x73808 (bvadd (bvsub ?x46233 ?x76976) (_ bv1 32)) ?x3042))))
 (let ((?x21873 (ite $x78669 (_ bv244 32) (_ bv243 32))))
 (let (($x73971 (bvsge ?x46233 ?x21873)))
 (let ((?x81406 (ite $x78669 (_ bv274 32) (_ bv273 32))))
 (let (($x74644 (bvsge ?x46233 ?x81406)))
 (let ((?x42211 (ite $x74644 (bvadd (bvsub ?x46233 ?x81406) (_ bv1 32)) (ite $x73971 (bvadd (bvsub ?x46233 ?x21873) (_ bv1 32)) ?x1680))))
 (let ((?x81431 (ite $x78669 (_ bv305 32) (_ bv304 32))))
 (let (($x7515 (bvsge ?x46233 ?x81431)))
 (let ((?x73663 (ite $x78669 (_ bv335 32) (_ bv334 32))))
 (let (($x81477 (bvsge ?x46233 ?x73663)))
 (let ((?x8228 (ite $x81477 (bvadd (bvsub ?x46233 ?x73663) (_ bv1 32)) (ite $x7515 (bvadd (bvsub ?x46233 ?x81431) (_ bv1 32)) ?x42211))))
 (let (($x11357 (= (_ bv0 32) (_ bv0 32))))
 (let ((?x2382 (ite $x11357 ?x2584 ?x8228)))
 (= x_plus_day ?x2382))))))))))))))))))))))))))))))))))))))))))))))))))))))))))))))))))))))))))))))))))))))))))))))))))))))))))))))
(assert
 (bvsle (_ bv4294930771 32) x_plus_1_epoch))
(assert
 (bvsge (_ bv36523 32) x_plus_1_epoch))
(assert
 (= x_plus_1_epoch (bvadd x_epoch (_ bv366 32))))
(assert
 (not (= x_plus_epoch x_plus_1_epoch)))
(check-sat)
